p edge 36 180
e 1 7
e 1 9
e 1 10
e 1 20
e 1 36
e 2 1
e 2 4
e 2 14
e 2 31
e 2 34
e 3 10
e 3 11
e 3 18
e 3 18
e 3 28
e 4 3
e 4 10
e 4 10
e 4 15
e 4 27
e 5 18
e 5 20
e 5 20
e 5 33
e 5 36
e 6 1
e 6 3
e 6 16
e 6 22
e 6 27
e 7 5
e 7 6
e 7 25
e 7 31
e 7 35
e 8 6
e 8 12
e 8 18
e 8 22
e 8 22
e 9 6
e 9 15
e 9 25
e 9 25
e 9 29
e 10 2
e 10 8
e 10 9
e 10 31
e 10 31
e 11 1
e 11 3
e 11 6
e 11 7
e 11 20
e 12 6
e 12 7
e 12 8
e 12 21
e 12 23
e 13 2
e 13 17
e 13 21
e 13 26
e 13 28
e 14 3
e 14 11
e 14 15
e 14 18
e 14 20
e 15 2
e 15 6
e 15 27
e 15 31
e 15 34
e 16 1
e 16 2
e 16 6
e 16 26
e 16 30
e 17 9
e 17 19
e 17 21
e 17 28
e 17 36
e 18 6
e 18 6
e 18 12
e 18 28
e 18 34
e 19 9
e 19 14
e 19 14
e 19 26
e 19 33
e 20 4
e 20 5
e 20 14
e 20 23
e 20 31
e 21 1
e 21 6
e 21 7
e 21 16
e 21 36
e 22 7
e 22 16
e 22 18
e 22 23
e 22 24
e 23 2
e 23 11
e 23 16
e 23 22
e 23 31
e 24 1
e 24 27
e 24 27
e 24 30
e 24 35
e 25 3
e 25 7
e 25 14
e 25 21
e 25 21
e 26 5
e 26 9
e 26 14
e 26 22
e 26 24
e 27 10
e 27 11
e 27 20
e 27 23
e 27 24
e 28 6
e 28 13
e 28 16
e 28 19
e 28 33
e 29 5
e 29 11
e 29 14
e 29 17
e 29 22
e 30 7
e 30 9
e 30 11
e 30 14
e 30 18
e 31 13
e 31 14
e 31 27
e 31 32
e 31 32
e 32 10
e 32 15
e 32 21
e 32 34
e 32 36
e 33 16
e 33 19
e 33 23
e 33 23
e 33 28
e 34 5
e 34 8
e 34 23
e 34 28
e 34 35
e 35 1
e 35 4
e 35 18
e 35 25
e 35 33
e 36 4
e 36 4
e 36 24
e 36 30
e 36 33
